Route #1: 290 330 331 332 372 373 374 375 376 377 378 379 380 381 382 383 343 329 328 368 369 370 371 411 412 413 414 415 416 417 418 419 420 421 422 423 424 425 426 427 387 384 385 386 346 347 307 308
Route #2: 287 327 367 366 365 364 404 405 406 407 408 409 410 450 451 452 453 454 455 456 457 458 459 460 461 462 463 464 465 466 467 468 469 470 471 431 430 428 429 389 388 348 349 350 390 391 351 352 312 272
Route #3: 280 241 281 320 319 359 360 321 361 362 402 403 443 444 445 446 447 448 449 442 441 480 472 473 474 475 476 477 478 479 439 438 401 440 400 399 398 358 353 393 392 432 433 434 435 436 437 397 394 395 396 356 357 317 316 276
Route #4: 125 166 167 168 208 209 207 247 248 288 289 249 250 251 291 292 252 253 254 255 295 296 297 294 293 333 334 335 336 337 338 339 340 341 342 302 303 304 344 345 305 306 266 262 263 264 265 225 226 186 185 145
Route #5: 120 160 121 122 162 163 164 165 205 203 204 244 243 283 284 282 322 323 363 324 325 326 286 285 245 246 206 202 242 201 240 239 279 278 318 277 237 238 198 197 161 200 199 159 157 158 155 156
Route #6: 146 147 148 149 189 190 191 187 188 228 227 267 268 269 309 310 311 271 270 230 229 231 232 233 234 274 273 313 314 354 355 315 275 235 236 196 195 192 193 194 154 153 152 150 151 111
Route #7: 89 130 131 132 129 169 170 210 211 212 213 214 215 216 256 257 217 218 219 259 258 298 299 300 301 261 260 220 221 222 223 224 184 183 182 171 172 173 174 175 176 177 178 179 180 181 141 140 139 137 138 97
Route #8: 98 99 100 101 103 102 142 143 144 104 105 106 107 108 109 110 112 113 114 115 116 117 118 119 81 82 83 123 124 126 127 128 88 84 85 86 87 90 91 92 93 133 134 135 136 96 95 94
Route #9: 2 1 40 39 38 78 79 80 41 42 43 44 45 46 47 48 49 50 51 52 53 54 55 56 57 58 59 60 61 62 63 64 65 66 67 68 69 70 71 72 73 74 75 76 77 37 35 36
Route #10: 3 4 5 6 7 8 9 10 11 12 13 14 15 16 17 18 19 20 21 22 23 24 25 26 27 28 29 30 31 32 33 34
Cost 16812.761599431433